Maximize

78.5 b0 + 23.5 b1 + 7 b2 + 2 b3.v0 + 6 b3.v1 + 54.5 b4 + 53.5 b5 + 1 b6 + 36.0 b7.v0 + 36.0 b7.v1 + 36.0 b7.v2 + 2 b8 + 6 b9 + 36.0 b10 + 6 b11.v0 + 6 b11.v1 + 13.5 b12 + 19.5 b13.v0 + 19.5 b13.v1 + 6 b14 + 52.5 b15 + 6096.5 b16 + 18.5 b17.v0 + 15.5 b17.v1 + 0 b18 + 23.5 b20 + 6 b21.v0 + 6 b21.v1 + 1 b22 + 7 b23.v0 + 7 b23.v1 + 6 b24


Subject to

\ === tcfg constraints ===
dSta_0 = 1
b0 - dSta_0 = 0
b0 - d0_10 = 0
b1 - d13_1 = 0
b1 - d1_3 - d1_8 = 0
b2 - d23_2 = 0
b2 - d2_4 - d2_3 = 0
b3 - d1_3 - d2_3 = 0
b3 - d3_7 = 0
b4 - d2_4 = 0
b4 - d4_5 - d4_9 = 0
b5 - d4_5 = 0
b5 - d5_15 = 0
b6 - d17_6 = 0
b6 - d6_7 = 0
b7 - d3_7 - d6_7 - d9_7 = 0
b8 - d1_8 = 0
b8 - d8_20 = 0
b9 - d4_9 = 0
b9 - d9_7 = 0
b10 - d0_10 = 0
b10 - d10_11 - d10_14 = 0
b11 - d10_11 - d14_11 = 0
b11 - d11_13 = 0
b12 - d14_12 = 0
b12 - d12_13 = 0
b13 - d11_13 - d12_13 = 0
b13 - d13_1 = 0
b14 - d10_14 = 0
b14 - d14_12 - d14_11 = 0
b15 - d5_15 = 0
b15 - d15_17 - d15_18 = 0
b16 - d18_16 = 0
b16 - d16_17 = 0
b17 - d15_17 - d16_17 = 0
b17 - d17_6 = 0
b18 - d15_18 = 0
b18 - d18_16 = 0
b20 - d8_20 = 0
b20 - d20_21 - d20_24 = 0
b21 - d20_21 - d24_21 = 0
b21 - d21_23 = 0
b22 - d24_22 = 0
b22 - d22_23 = 0
b23 - d21_23 - d22_23 = 0
b23 - d23_2 = 0
b24 - d20_24 = 0
b24 - d24_22 - d24_21 = 0


\ === header constraints ===



\ === context constraints ===
b3 - b3.v0 - b3.v1 = 0
b3.v0 - d1_3 = 0
b3.v1 - d2_3 = 0
b7 - b7.v0 - b7.v1 - b7.v2 = 0
b7.v0 - d3_7 = 0
b7.v1 - d6_7 = 0
b7.v2 - d9_7 = 0
b11 - b11.v0 - b11.v1 = 0
b11.v0 - d10_11 = 0
b11.v1 - d14_11 = 0
b13 - b13.v0 - b13.v1 = 0
b13.v0 - d11_13 = 0
b13.v1 - d12_13 = 0
b17 - b17.v0 - b17.v1 = 0
b17.v0 - d15_17 = 0
b17.v1 - d16_17 = 0
b21 - b21.v0 - b21.v1 = 0
b21.v0 - d20_21 = 0
b21.v1 - d24_21 = 0
b23 - b23.v0 - b23.v1 = 0
b23.v0 - d21_23 = 0
b23.v1 - d22_23 = 0


\ === inst cache constraints ===



\ === data cache constraints ===



Generals


b0
b1
b2
b3
b3.v0
b3.v1
b4
b5
b6
b7
b7.v0
b7.v1
b7.v2
b8
b9
b10
b11
b11.v0
b11.v1
b12
b13
b13.v0
b13.v1
b14
b15
b16
b17
b17.v0
b17.v1
b18
b20
b21
b21.v0
b21.v1
b22
b23
b23.v0
b23.v1
b24
d0_10
d1_3
d1_8
d2_3
d2_4
d3_7
d4_5
d4_9
d5_15
d6_7
d8_20
d9_7
d10_11
d10_14
d11_13
d12_13
d13_1
d14_11
d14_12
d15_17
d15_18
d16_17
d17_6
d18_16
d20_21
d20_24
d21_23
d22_23
d23_2
d24_21
d24_22
dSta_0


End
\ total cons: 92    total vars: 71
